00000010000100000011001001010101000010000011101101101111110001001101010100000110000111011001111101101101110111000010011111000110000110011100000001110001000010010110010111100110110011010101110100101000100001010011010011010010011001111101011000001000100001110101011001100001110111100100101101111001001110001010010010100110100001011001111110111001001011010000101011111011100000101111000100101101100011000100000001001011101101101000110011101100000110011001010111001011101111100101001101011101100100010000000110110000100010010110011000100010000110000011011011110000101000100000000000000000010000100101001010100110000000100000000011111100100010000010110111111000000000110001010101111011100101100000001100010101101110111101011001011011011001101011000000110101000000000111010011100011100011010000000010111001101000010100010110100000011000110000010000011001110001100100010001011001111111010110100101110100100110010111110010010110101000100011001111011100000100100000100101001000001101010011101011001001010000010111101101001010111000010111101011011011111010010100010101111000011101110000011011101001011010000000100000110110111100001010001000000000000000001110010101010010100101100000001000000000111111001000100011001101011011010000001100010101011110111001011000000011000101011011101111010110